units real
dimension 3
boundary p p p
atom_style full
pair_style lj/cut/coul/long 11
bond_style harmonic
angle_style harmonic
dihedral_style opls
improper_style harmonic
special_bonds lj/coul 0 0 0.5
pair_modify tail yes
kspace_style pppm 1e-4
