# run ID settings
variable nAO index 110  # AcetOne
variable nAN index 155  # AcetoNitrile
variable runno index 1  # run number

variable runID string vmix_${nAO}AO-${nAN}AN_run${runno}
shell mkdir ../${runID}
shell cd ../${runID}
log log.equil.${runID}

# global parameters

include ../../setup/settings.lmp

# read in earlier acetone box

read_data init_${runID}.data

# minimize

minimize 1e-4 1e-6 1000 10000
write_data min_${runID}.data
reset_timestep 0

# equilibrate NPT

#dump DCD all dcd 5000 equil_${runID}.dcd

fix LOG all print 1000 "$(step) $(temp) $(epair) $(emol) $(etotal) $(press) $(vol) $(density) $(econserve)" screen no file thermo_${runID}.txt

timestep 1.0
thermo_style custom step temp epair emol etotal press vol density econserve 
thermo 1000
fix CH  all shake 0.0001 20 0 t 4
fix NPT1 all npt   temp 20 300 $(100*dt) iso 1.0 1.0 $(200*dt)

run 200000

unfix NPT1

write_data npt1_${runID}.data

#another npt

fix NPT2 all npt   temp 300 300 $(100*dt) iso 1.0 1.0 $(200*dt)

run 200000

unfix NPT2

write_data npt2_${runID}.data

# equilibrate NVT

fix NVT all nvt   temp 300 300 $(100*dt)
run 200000

unfix NVT

write_data nvt_${runID}.data
